SystemName       graphene
SystemLabel      graphene
NumberOfAtoms    2
NumberOfSpecies  1
%block ChemicalSpeciesLabel
 1   6   C
%endblock ChemicalSpeciesLabel

LatticeConstant     2.46 Ang

%block LatticeVectors
    0.866025    0.500000    0.000000
    0.866025   -0.500000    0.000000
    0.000000    0.000000    20.00000
%endblock LatticeVectors

%block kgrid_Monkhorst_Pack
64    0   0   0.0
 0   64   0   0.0
 0    0   1   0.0
%endblock kgrid_Monkhorst_Pack

#%block BandLines
#1   0.6667 0.3333 0.000
#70  0.0000 0.0000 0.000
#70  0.5000 0.0000 0.000
#70  0.6667 0.3333 0.000
#%endblock BandLines


AtomicCoordinatesFormat  Ang

BandlinesScale	ReciprocalLatticeVectors
AtomicCoordinatesFormat NotScaledCartesianAng
AtomCoorFormatOut   NotScaledCartesianAng
%block AtomicCoordinatesAndAtomicSpecies
   1.4400000      0.0000000      0.0000000          1
   2.8800000      0.0000000      0.0000000          1
%endblock AtomicCoordinatesAndAtomicSpecies
PAO.BasisSize     DZP
PAO.EnergyShift   0.05 eV
#UseSaveData    true
#MD.UseSaveXV	.true.
#MD.UseSaveCG	.true.
MD.TypeOfRun      CG
MD.NumCGsteps     0
MD.MaxForceTol    0.05 eV/Ang
XC.functional	  GGA
XC.authors	  PBE
MeshCutoff        400.0 Ry 

DM.MixingWeight   0.10
DM.NumberPulay    3
#DM.UseSaveDM	.true.
MaxSCFIterations  300
WriteCoorXmol	.true.
WriteMullikenPop 1
#WriteBands .true.
#WriteEigenvalues        .true.

#%block SuperCell
#8 0 0
#0 8 0
#0 0 1
#%endblock SuperCell


SolutionMethod diagon
ElectronicTemperature  20 meV
SpinPolarized         .false.          

#%block  ProjectedDensityOfStates
# -6.5 -2.5 0.05  700    eV
#%endblock ProjectedDensityOfStates

#%block LocalDensityOfStates
#-4.25 -3.90 eV
#%endblock LocalDensityOfStates

#WriteWaveFunctions .true.
#%block WaveFuncKPoints
#0.000 0.000 0.000  
#%endblock WaveFuncKPoints

#WriteDenchar           .true.

#SaveRho		.true.
#SaveDeltaRho            .true.
